sifdecoder -A pc64.lnx.gfo -st   DALE

 Problem name: DALE

 Double precision version will be formed

 The objective function uses 2 linear groups
 
 There are 405 linear equality constraints
 
 There are 1583 variables bounded only from above 
 There are 14931 variables bounded from below and above 
 
 
 File successfully decoded
 CUTEST: tools (double precision version) compiled successfully
 CUTEst: ipopt (double precision version) compiled successfully

******************************************************************************
This program contains Ipopt, a library for large-scale nonlinear optimization.
 Ipopt is released as open source code under the Eclipse Public License (EPL).
         For more information visit http://projects.coin-or.org/Ipopt
******************************************************************************

This is Ipopt version trunk, running with linear solver ma57.

Number of nonzeros in equality constraint Jacobian...:    33028
Number of nonzeros in inequality constraint Jacobian.:        0
Number of nonzeros in Lagrangian Hessian.............:    16514

Total number of variables............................:    16514
                     variables with only lower bounds:        0
                variables with lower and upper bounds:    14931
                     variables with only upper bounds:     1583
Total number of equality constraints.................:      405
Total number of inequality constraints...............:        0
        inequality constraints with only lower bounds:        0
   inequality constraints with lower and upper bounds:        0
        inequality constraints with only upper bounds:        0

iter    objective    inf_pr   inf_du lg(mu)  ||d||  lg(rg) alpha_du alpha_pr  ls
   0  2.7914919e+03 1.48e+02 2.02e+00  -1.0 0.00e+00    -  0.00e+00 0.00e+00   0
   1  4.4761862e+03 1.19e-08 3.19e+00  -1.0 1.92e+03    -  3.05e-01 1.00e+00h  1
   2  4.1103662e+03 7.03e-13 3.65e-01  -1.0 1.19e+02    -  7.98e-01 1.00e+00f  1
   3  4.2215224e+03 1.90e-12 2.22e-02  -1.0 1.05e+01    -  9.59e-01 1.00e+00f  1
   4  4.2126361e+03 9.31e-13 7.13e-04  -1.0 3.30e+00    -  9.90e-01 1.00e+00f  1
   5  4.2126372e+03 2.90e-12 2.76e-05  -1.0 3.95e-02    -  9.92e-01 1.00e+00f  1
   6  3.8260640e+03 4.30e-10 2.00e-07  -1.7 1.61e+02    -  1.00e+00 1.00e+00f  1
   7  3.7193002e+03 1.23e-10 2.83e-08  -2.5 3.04e+01    -  1.00e+00 1.00e+00f  1
   8  3.7033441e+03 1.39e-11 1.50e-09  -3.8 2.10e+00    -  1.00e+00 1.00e+00f  1
   9  3.7031216e+03 1.05e-12 1.50e-09  -3.8 1.76e+00    -  1.00e+00 1.00e+00f  1
iter    objective    inf_pr   inf_du lg(mu)  ||d||  lg(rg) alpha_du alpha_pr  ls
  10  3.7023576e+03 1.22e-12 1.84e-11  -5.7 3.48e-01    -  1.00e+00 1.00e+00f  1
  11  3.7023539e+03 1.65e-12 1.84e-11  -5.7 1.76e-01    -  1.00e+00 1.00e+00f  1
  12  3.7023536e+03 5.55e-13 1.84e-11  -5.7 3.74e-02    -  1.00e+00 1.00e+00f  1
  13  3.7023446e+03 2.85e-12 2.53e-14  -8.6 6.14e-03    -  1.00e+00 1.00e+00f  1
  14  3.7023446e+03 7.11e-13 2.54e-14  -8.6 5.66e-04    -  1.00e+00 1.00e+00h  1
  15  3.7023446e+03 3.40e-12 2.53e-14  -8.6 9.56e-06    -  1.00e+00 1.00e+00h  1

Number of Iterations....: 15

                                   (scaled)                 (unscaled)
Objective...............:   3.7023445539939607e+03    3.7023445539939607e+03
Dual infeasibility......:   2.5301277298180606e-14    2.5301277298180606e-14
Constraint violation....:   3.4048319719204301e-12    3.4048319719204301e-12
Complementarity.........:   2.6418352023017766e-09    2.6418352023017766e-09
Overall NLP error.......:   2.6418352023017766e-09    2.6418352023017766e-09


Number of objective function evaluations             = 16
Number of objective gradient evaluations             = 16
Number of equality constraint evaluations            = 16
Number of inequality constraint evaluations          = 0
Number of equality constraint Jacobian evaluations   = 16
Number of inequality constraint Jacobian evaluations = 0
Number of Lagrangian Hessian evaluations             = 15
Total CPU secs in IPOPT (w/o function evaluations)   =      2.480
Total CPU secs in NLP function evaluations           =      0.188

EXIT: Optimal Solution Found.

************************ CUTEst statistics ************************


 Package used            :  IPOPT
 Problem                 :  DALE      
 # variables             =           16514
 # constraints           =             405
 # objective functions   =        0.3300000E+02
 # objective gradients   =        0.1700000E+02
 # objective Hessians    =        0.1600000E+02
 # Hessian-vector prdct  =        0.0000000E+00
 # constraints functions =        0.3400000E+02
 # constraints gradients =        0.1800000E+02
 # constraints Hessians  =        0.1600000E+02
 Exit code               =               0
 Final f                 =        3.7023445539939607D+03
 Bounds feasibility      =        9.1790892664533885D-09
 Set up time             =            0.84 seconds
 Solve time              =            5.65 seconds


******************************************************************

